projected/problems_b25_r0_d7_m100_s666/_DIMACS/b25_d7_r0_s666_090.cnf
p cnf 319 625 25
c p show 1 2 3 4 5 6 7 8 9 10 11 12 13 14 15 16 17 18 19 20 21 22 23 24 25
-26 21 4 0
-27 21 0
-27 -16 0
-28 27 0
-28 26 0
-29 13 0
-29 6 0
-30 17 14 0
-31 30 0
-31 29 0
-32 31 0
-32 28 0
-33 -23 0
-33 -7 0
-34 7 0
-34 23 0
-35 34 33 0
-36 -7 0
-36 7 0
-37 36 0
-37 35 0
-38 7 -7 0
-39 23 7 0
-40 -7 -23 0
-41 40 0
-41 39 0
-42 41 0
-42 38 0
-43 42 37 0
-44 -13 24 0
-45 11 -16 0
-46 45 44 0
-47 46 0
-47 43 0
-48 47 0
-48 32 0
-49 12 0
-49 8 0
-50 -11 -1 0
-51 50 0
-51 49 0
-52 -4 0
-52 -12 0
-53 19 0
-53 20 0
-54 53 0
-54 52 0
-55 54 0
-55 51 0
-56 -21 -16 0
-57 21 23 0
-58 57 56 0
-59 -18 -5 0
-60 18 0
-60 -4 0
-61 60 0
-61 59 0
-62 61 58 0
-63 62 0
-63 55 0
-64 63 48 0
-65 -23 0
-65 14 0
-66 -11 0
-66 23 0
-67 66 65 0
-68 -14 0
-68 -20 0
-69 -13 0
-69 -22 0
-70 69 0
-70 68 0
-71 70 67 0
-72 -25 0
-72 -18 0
-73 39 0
-73 72 0
-74 14 0
-74 -16 0
-75 13 -13 0
-76 75 0
-77 76 0
-77 74 0
-78 77 0
-78 73 0
-79 78 71 0
-80 23 20 0
-81 21 0
-81 5 0
-82 81 80 0
-83 -17 0
-83 7 0
-84 20 0
-84 22 0
-85 84 0
-85 83 0
-86 85 82 0
-87 15 0
-87 -18 0
-88 -3 8 0
-89 88 87 0
-90 13 -4 0
-91 12 0
-91 23 0
-92 91 0
-92 90 0
-93 92 0
-93 89 0
-94 -13 0
-94 4 0
-95 -12 -23 0
-96 95 94 0
-97 -15 18 0
-98 3 0
-98 -8 0
-99 98 0
-99 97 0
-100 99 0
-100 96 0
-101 100 93 0
-102 101 86 0
-103 102 0
-103 79 0
-104 103 0
-104 64 0
-105 -25 0
-105 12 0
-106 24 0
-106 -9 0
-107 106 105 0
-108 -24 9 0
-109 25 -12 0
-110 109 108 0
-111 110 0
-111 107 0
-112 2 0
-112 6 0
-113 19 0
-114 113 112 0
-115 114 111 0
-116 -4 -16 0
-117 12 0
-117 25 0
-118 117 116 0
-119 -9 8 0
-120 3 -13 0
-121 120 0
-121 119 0
-122 -3 0
-122 13 0
-123 9 0
-123 -8 0
-124 123 0
-124 122 0
-125 124 121 0
-126 125 0
-126 118 0
-127 126 0
-127 115 0
-128 -9 0
-128 13 0
-129 -13 0
-129 9 0
-130 129 128 0
-131 -6 -5 0
-132 131 0
-132 130 0
-133 8 4 0
-134 23 0
-134 3 0
-135 134 133 0
-136 -23 -3 0
-137 -8 0
-137 -4 0
-138 137 136 0
-139 138 0
-139 135 0
-140 139 0
-140 132 0
-141 -2 0
-141 -8 0
-142 8 0
-142 2 0
-143 142 141 0
-144 -24 -22 0
-145 144 0
-145 143 0
-146 8 18 0
-147 -18 -8 0
-148 147 0
-148 146 0
-149 -6 0
-149 18 0
-150 149 0
-150 148 0
-151 150 145 0
-152 151 0
-152 140 0
-153 152 127 0
-154 7 -24 0
-155 10 -17 0
-156 155 154 0
-157 14 12 0
-158 -13 -22 0
-159 158 0
-159 157 0
-160 159 0
-160 156 0
-161 -9 0
-161 -3 0
-162 1 0
-162 -13 0
-163 13 0
-163 -1 0
-164 163 162 0
-165 164 0
-165 161 0
-166 3 11 0
-167 14 -14 0
-168 167 0
-168 166 0
-169 168 0
-169 165 0
-170 169 160 0
-171 16 0
-171 5 0
-172 9 20 0
-173 172 171 0
-174 -13 0
-174 -25 0
-175 -4 3 0
-176 175 174 0
-177 176 0
-177 173 0
-178 -23 0
-178 -6 0
-179 -12 3 0
-180 179 178 0
-181 -4 0
-181 24 0
-182 12 -25 0
-183 182 0
-183 181 0
-184 183 0
-184 180 0
-185 184 177 0
-186 185 170 0
-187 186 0
-187 153 0
-188 187 104 0
-189 108 0
-189 109 0
-190 105 0
-190 106 0
-191 190 189 0
-192 -2 -6 0
-193 -19 0
-194 193 0
-194 192 0
-195 194 0
-195 191 0
-196 4 0
-196 16 0
-197 -12 -25 0
-198 197 0
-198 196 0
-199 122 123 0
-200 119 120 0
-201 200 0
-201 199 0
-202 201 198 0
-203 202 195 0
-204 9 -13 0
-205 13 -9 0
-206 205 0
-206 204 0
-207 6 0
-207 5 0
-208 207 206 0
-209 136 0
-209 137 0
-210 133 0
-210 134 0
-211 210 209 0
-212 211 208 0
-213 2 8 0
-214 -8 -2 0
-215 214 0
-215 213 0
-216 24 0
-216 22 0
-217 216 215 0
-218 -8 0
-218 -18 0
-219 18 0
-219 8 0
-220 219 218 0
-221 6 -18 0
-222 221 220 0
-223 222 0
-223 217 0
-224 223 212 0
-225 224 0
-225 203 0
-226 -7 0
-226 24 0
-227 -10 0
-227 17 0
-228 227 0
-228 226 0
-229 -14 0
-229 -12 0
-230 13 0
-230 22 0
-231 230 229 0
-232 231 228 0
-233 9 3 0
-234 -1 13 0
-235 -13 1 0
-236 235 0
-236 234 0
-237 236 233 0
-238 -3 0
-238 -11 0
-239 -14 0
-239 14 0
-240 239 238 0
-241 240 237 0
-242 241 0
-242 232 0
-243 -16 -5 0
-244 -9 0
-244 -20 0
-245 244 0
-245 243 0
-246 13 25 0
-247 4 0
-247 -3 0
-248 247 0
-248 246 0
-249 248 245 0
-250 23 6 0
-251 12 0
-251 -3 0
-252 251 0
-252 250 0
-253 4 -24 0
-254 -12 0
-254 25 0
-255 254 253 0
-256 255 252 0
-257 256 0
-257 249 0
-258 257 0
-258 242 0
-259 258 225 0
-260 -21 0
-260 -4 0
-261 -21 16 0
-262 261 260 0
-263 -13 -6 0
-264 -17 0
-264 -14 0
-265 264 263 0
-266 265 262 0
-267 38 41 0
-268 35 36 0
-269 268 0
-269 267 0
-270 13 0
-270 -24 0
-271 -11 0
-271 16 0
-272 271 0
-272 270 0
-273 272 269 0
-274 273 266 0
-275 -12 -8 0
-276 11 0
-276 1 0
-277 276 275 0
-278 4 12 0
-279 -19 -20 0
-280 279 278 0
-281 280 277 0
-282 21 0
-282 16 0
-283 -21 0
-283 -23 0
-284 283 0
-284 282 0
-285 18 0
-285 5 0
-286 -18 4 0
-287 286 285 0
-288 287 0
-288 284 0
-289 288 281 0
-290 289 0
-290 274 0
-291 23 -14 0
-292 11 -23 0
-293 292 0
-293 291 0
-294 14 20 0
-295 13 22 0
-296 295 294 0
-297 296 0
-297 293 0
-298 25 18 0
-299 33 298 0
-300 -14 16 0
-301 -13 0
-301 13 0
-302 301 0
-303 302 300 0
-304 303 299 0
-305 304 0
-305 297 0
-306 -23 0
-306 -20 0
-307 -21 -5 0
-308 307 0
-308 306 0
-309 17 -7 0
-310 -20 -22 0
-311 310 309 0
-312 311 0
-312 308 0
-313 96 99 0
-314 89 92 0
-315 314 0
-315 313 0
-316 315 0
-316 312 0
-317 316 305 0
-318 317 290 0
-319 318 259 0
319 0
188 0
-108 -106 0
-109 -105 0
-105 -109 0
-111 -191 0
-191 -111 0
-112 -192 0
-192 -112 0
-113 -193 0
-193 -113 0
-194 -114 0
-195 -115 0
-116 -196 0
-117 -197 0
-118 -198 0
-198 -118 0
-122 -120 0
-120 -122 0
-123 -119 0
-201 -125 0
-202 -126 0
-203 -127 0
-206 -130 0
-130 -206 0
-131 -207 0
-132 -208 0
-136 -134 0
-137 -133 0
-133 -137 0
-139 -211 0
-140 -212 0
-215 -143 0
-143 -215 0
-216 -144 0
-144 -216 0
-145 -217 0
-217 -145 0
-148 -220 0
-221 -149 0
-149 -221 0
-150 -222 0
-222 -150 0
-223 -151 0
-151 -223 0
-152 -224 0
-224 -152 0
-225 -153 0
-153 -225 0
-226 -154 0
-154 -226 0
-155 -227 0
-156 -228 0
-228 -156 0
-157 -229 0
-229 -157 0
-158 -230 0
-230 -158 0
-231 -159 0
-232 -160 0
-160 -232 0
-233 -161 0
-236 -164 0
-237 -165 0
-165 -237 0
-238 -166 0
-167 -239 0
-239 -167 0
-240 -168 0
-168 -240 0
-169 -241 0
-170 -242 0
-243 -171 0
-172 -244 0
-244 -172 0
-245 -173 0
-174 -246 0
-246 -174 0
-247 -175 0
-248 -176 0
-249 -177 0
-177 -249 0
-178 -250 0
-250 -178 0
-251 -179 0
-252 -180 0
-181 -253 0
-182 -254 0
-183 -255 0
-255 -183 0
-256 -184 0
-184 -256 0
-185 -257 0
-186 -258 0
-187 -259 0
-259 -187 0
-260 -26 0
-26 -260 0
-27 -261 0
-28 -262 0
-262 -28 0
-263 -29 0
-30 -264 0
-264 -30 0
-265 -31 0
-266 -32 0
-38 -36 0
-36 -38 0
-41 -35 0
-269 -43 0
-43 -269 0
-270 -44 0
-271 -45 0
-272 -46 0
-46 -272 0
-47 -273 0
-273 -47 0
-274 -48 0
-49 -275 0
-275 -49 0
-50 -276 0
-276 -50 0
-277 -51 0
-52 -278 0
-278 -52 0
-53 -279 0
-279 -53 0
-280 -54 0
-281 -55 0
-55 -281 0
-56 -282 0
-57 -283 0
-58 -284 0
-285 -59 0
-60 -286 0
-286 -60 0
-287 -61 0
-61 -287 0
-62 -288 0
-63 -289 0
-289 -63 0
-290 -64 0
-65 -291 0
-291 -65 0
-66 -292 0
-292 -66 0
-293 -67 0
-68 -294 0
-294 -68 0
-69 -295 0
-295 -69 0
-296 -70 0
-297 -71 0
-298 -72 0
-33 -39 0
-299 -73 0
-73 -299 0
-74 -300 0
-76 -302 0
-77 -303 0
-78 -304 0
-304 -78 0
-305 -79 0
-306 -80 0
-81 -307 0
-307 -81 0
-308 -82 0
-82 -308 0
-309 -83 0
-83 -309 0
-84 -310 0
-85 -311 0
-86 -312 0
-312 -86 0
-90 -94 0
-91 -95 0
-92 -96 0
-87 -97 0
-98 -88 0
-88 -98 0
-89 -99 0
-99 -89 0
-315 -101 0
-316 -102 0
-317 -103 0
-318 -104 0
-104 -318 0
