projected/problems_b25_r0_d7_m100_s666/b25_d7_r0_s666_090.smt2
(set-logic QF_UF)
(declare-fun A0 () Bool)
(declare-fun A1 () Bool)
(declare-fun A2 () Bool)
(declare-fun A3 () Bool)
(declare-fun A4 () Bool)
(declare-fun A5 () Bool)
(declare-fun A6 () Bool)
(declare-fun A7 () Bool)
(declare-fun A8 () Bool)
(declare-fun A9 () Bool)
(declare-fun A10 () Bool)
(declare-fun A11 () Bool)
(declare-fun A12 () Bool)
(declare-fun A13 () Bool)
(declare-fun A14 () Bool)
(declare-fun A15 () Bool)
(declare-fun A16 () Bool)
(declare-fun A17 () Bool)
(declare-fun A18 () Bool)
(declare-fun A19 () Bool)
(declare-fun A20 () Bool)
(declare-fun A21 () Bool)
(declare-fun A22 () Bool)
(declare-fun A23 () Bool)
(declare-fun A24 () Bool)
(assert (let ((.def_0 (not A23))) (let ((.def_1 (or .def_0 A8))) (let ((.def_2 (not A11))) (let ((.def_3 (or A24 .def_2))) (let ((.def_4 (not .def_3))) (let ((.def_5 (= .def_4 .def_1))) (let ((.def_6 (not .def_5))) (let ((.def_7 (and A1 A5))) (let ((.def_8 (not .def_7))) (let ((.def_9 (and A18 A18))) (let ((.def_10 (not .def_9))) (let ((.def_11 (and .def_10 .def_8))) (let ((.def_12 (and .def_11 .def_6))) (let ((.def_13 (not A15))) (let ((.def_14 (not A3))) (let ((.def_15 (or .def_14 .def_13))) (let ((.def_16 (and A11 A24))) (let ((.def_17 (or .def_16 .def_15))) (let ((.def_18 (not .def_17))) (let ((.def_19 (not A2))) (let ((.def_20 (and .def_19 A12))) (let ((.def_21 (not .def_20))) (let ((.def_22 (not A7))) (let ((.def_23 (and A8 .def_22))) (let ((.def_24 (= .def_23 .def_21))) (let ((.def_25 (or .def_24 .def_18))) (let ((.def_26 (or .def_25 .def_12))) (let ((.def_27 (not A8))) (let ((.def_28 (not A12))) (let ((.def_29 (= .def_28 .def_27))) (let ((.def_30 (not .def_29))) (let ((.def_31 (not A4))) (let ((.def_32 (not A5))) (let ((.def_33 (or .def_32 .def_31))) (let ((.def_34 (and .def_33 .def_30))) (let ((.def_35 (not A22))) (let ((.def_36 (or .def_35 .def_19))) (let ((.def_37 (and .def_22 .def_14))) (let ((.def_38 (not .def_37))) (let ((.def_39 (= .def_38 .def_36))) (let ((.def_40 (and .def_39 .def_34))) (let ((.def_41 (not A1))) (let ((.def_42 (= A7 .def_41))) (let ((.def_43 (not .def_42))) (let ((.def_44 (and A23 A21))) (let ((.def_45 (not .def_44))) (let ((.def_46 (and .def_45 .def_43))) (let ((.def_47 (not .def_46))) (let ((.def_48 (= A17 .def_22))) (let ((.def_49 (not A17))) (let ((.def_50 (or A5 .def_49))) (let ((.def_51 (not .def_50))) (let ((.def_52 (and .def_51 .def_48))) (let ((.def_53 (not .def_52))) (let ((.def_54 (and .def_53 .def_47))) (let ((.def_55 (not .def_54))) (let ((.def_56 (and .def_55 .def_40))) (let ((.def_57 (not .def_56))) (let ((.def_58 (and .def_57 .def_26))) (let ((.def_59 (not .def_58))) (let ((.def_60 (not A6))) (let ((.def_61 (and .def_60 A23))) (let ((.def_62 (not .def_61))) (let ((.def_63 (not A16))) (let ((.def_64 (or A9 .def_63))) (let ((.def_65 (or .def_64 .def_62))) (let ((.def_66 (not .def_65))) (let ((.def_67 (or A13 A11))) (let ((.def_68 (not .def_67))) (let ((.def_69 (not A21))) (let ((.def_70 (or .def_28 .def_69))) (let ((.def_71 (not .def_70))) (let ((.def_72 (or .def_71 .def_68))) (let ((.def_73 (or .def_72 .def_66))) (let ((.def_74 (not .def_73))) (let ((.def_75 (or A8 A2))) (let ((.def_76 (= A12 A0))) (let ((.def_77 (or .def_76 .def_75))) (let ((.def_78 (not .def_77))) (let ((.def_79 (not A10))) (let ((.def_80 (and .def_19 .def_79))) (let ((.def_81 (not A13))) (let ((.def_82 (or A13 .def_81))) (let ((.def_83 (not .def_82))) (let ((.def_84 (or .def_83 .def_80))) (let ((.def_85 (not .def_84))) (let ((.def_86 (and .def_85 .def_78))) (let ((.def_87 (or .def_86 .def_74))) (let ((.def_88 (or .def_13 .def_31))) (let ((.def_89 (or A8 A19))) (let ((.def_90 (not .def_89))) (let ((.def_91 (and .def_90 .def_88))) (let ((.def_92 (not A24))) (let ((.def_93 (and .def_28 .def_92))) (let ((.def_94 (not .def_93))) (let ((.def_95 (and A3 .def_19))) (let ((.def_96 (and .def_95 .def_94))) (let ((.def_97 (or .def_96 .def_91))) (let ((.def_98 (not .def_97))) (let ((.def_99 (and .def_35 .def_32))) (let ((.def_100 (not .def_99))) (let ((.def_101 (and A11 .def_19))) (let ((.def_102 (and .def_101 .def_100))) (let ((.def_103 (and .def_14 A23))) (let ((.def_104 (or A11 .def_92))) (let ((.def_105 (and .def_104 .def_103))) (let ((.def_106 (not .def_105))) (let ((.def_107 (or .def_106 .def_102))) (let ((.def_108 (not .def_107))) (let ((.def_109 (or .def_108 .def_98))) (let ((.def_110 (or .def_109 .def_87))) (let ((.def_111 (and .def_110 .def_59))) (let ((.def_112 (not .def_111))) (let ((.def_113 (not A20))) (let ((.def_114 (and .def_113 .def_14))) (let ((.def_115 (not .def_114))) (let ((.def_116 (and A20 .def_13))) (let ((.def_117 (and .def_116 .def_115))) (let ((.def_118 (not .def_117))) (let ((.def_119 (or .def_28 .def_32))) (let ((.def_120 (or A16 A13))) (let ((.def_121 (not .def_120))) (let ((.def_122 (or .def_121 .def_119))) (let ((.def_123 (or .def_122 .def_118))) (let ((.def_124 (or A6 .def_60))) (let ((.def_125 (not .def_124))) (let ((.def_126 (= A6 .def_35))) (let ((.def_127 (= .def_126 .def_125))) (let ((.def_128 (not .def_127))) (let ((.def_129 (and A12 .def_0))) (let ((.def_130 (and .def_79 A15))) (let ((.def_131 (and .def_130 .def_129))) (let ((.def_132 (not .def_131))) (let ((.def_133 (and .def_132 .def_128))) (let ((.def_134 (not .def_133))) (let ((.def_135 (or .def_134 .def_123))) (let ((.def_136 (and A11 A7))) (let ((.def_137 (not .def_136))) (let ((.def_138 (not A0))) (let ((.def_139 (or .def_79 .def_138))) (let ((.def_140 (not .def_139))) (let ((.def_141 (or .def_140 .def_137))) (let ((.def_142 (and .def_14 .def_2))) (let ((.def_143 (not .def_142))) (let ((.def_144 (and A18 A19))) (let ((.def_145 (not .def_144))) (let ((.def_146 (or .def_145 .def_143))) (let ((.def_147 (or .def_146 .def_141))) (let ((.def_148 (not .def_147))) (let ((.def_149 (or .def_113 .def_13))) (let ((.def_150 (or A20 A22))) (let ((.def_151 (or .def_150 .def_149))) (let ((.def_152 (and A17 A4))) (let ((.def_153 (and A17 .def_14))) (let ((.def_154 (not .def_153))) (let ((.def_155 (or .def_154 .def_152))) (let ((.def_156 (not .def_155))) (let ((.def_157 (or .def_156 .def_151))) (let ((.def_158 (and .def_157 .def_148))) (let ((.def_159 (not .def_158))) (let ((.def_160 (and .def_159 .def_135))) (let ((.def_161 (and .def_35 A13))) (let ((.def_162 (not .def_161))) (let ((.def_163 (and .def_79 A22))) (let ((.def_164 (not .def_163))) (let ((.def_165 (and .def_164 .def_162))) (let ((.def_166 (not A19))) (let ((.def_167 (and .def_81 .def_166))) (let ((.def_168 (not .def_167))) (let ((.def_169 (and .def_28 .def_69))) (let ((.def_170 (not .def_169))) (let ((.def_171 (or .def_170 .def_168))) (let ((.def_172 (and .def_171 .def_165))) (let ((.def_173 (or A24 A17))) (let ((.def_174 (and .def_35 .def_60))) (let ((.def_175 (or .def_174 .def_173))) (let ((.def_176 (not .def_175))) (let ((.def_177 (and A13 .def_13))) (let ((.def_178 (= .def_28 .def_28))) (let ((.def_179 (and .def_178 .def_177))) (let ((.def_180 (and .def_179 .def_176))) (let ((.def_181 (not .def_180))) (let ((.def_182 (and .def_181 .def_172))) (let ((.def_183 (and .def_35 .def_166))) (let ((.def_184 (and A20 A4))) (let ((.def_185 (not .def_184))) (let ((.def_186 (and .def_185 .def_183))) (let ((.def_187 (not .def_186))) (let ((.def_188 (or A16 .def_60))) (let ((.def_189 (not .def_188))) (let ((.def_190 (and A19 A21))) (let ((.def_191 (and .def_190 .def_189))) (let ((.def_192 (or .def_191 .def_187))) (let ((.def_193 (not .def_192))) (let ((.def_194 (or A12 .def_14))) (let ((.def_195 (and A11 A22))) (let ((.def_196 (and .def_195 .def_194))) (let ((.def_197 (and A14 .def_49))) (let ((.def_198 (and A2 .def_22))) (let ((.def_199 (not .def_198))) (let ((.def_200 (or .def_199 .def_197))) (let ((.def_201 (not .def_200))) (let ((.def_202 (= .def_201 .def_196))) (let ((.def_203 (and .def_202 .def_193))) (let ((.def_204 (or .def_203 .def_182))) (let ((.def_205 (or .def_204 .def_160))) (let ((.def_206 (not .def_205))) (let ((.def_207 (= .def_206 .def_112))) .def_207)))))))))))))))))))))))))))))))))))))))))))))))))))))))))))))))))))))))))))))))))))))))))))))))))))))))))))))))))))))))))))))))))))))))))))))))))))))))))))))))))))))))))))))))))))))))))))))))))))))))))))))))))
(check-sat)
